outputs/case_7.model.txt
appropriate_operating_procedures_established = False
authority_inspection_conducted = True
has_fixed_office = True
has_broker_license = True
internal_control_operating_procedures_defined = False
risk_assessment_performed = False
correction_of_deficiencies_done = False
continuous_follow_up_done = False
has_notary_license = False
has_certain_scale = True
accounting_information_personal_data_aml_terrorism_control = False
information_and_communication_effective = False
provides_risk_planning_reinsurance_claim_services = False
reporting_period_start_month_day = 401
solicitation_handling_procedures_defined = False
audit_committee_established = False
monitoring_activities_performed = False
is_publicly_listed = False
annual_revenue = 900000000
control_environment_established = False
financial_inspection_report_management = False
has_special_account_book = True
annual_reports_submitted = False
major_incident_handling_mechanism = False
control_activities_implemented = False
reporting_period_end_month_day = 531
follow_up_reported_to_board_and_audit_committee = False
provides_risk_planning_claim_services = False
has_agent_license = False
other_matters_designated_by_authority = False
operating_procedures_reviewed_and_updated = False
audit_committee_meeting_management_included = False
has_separate_account_book = True
bank_permitted_to_operate_broker_business = False
internal_control_operating_procedures_items = False
audit_committee_included = True
separate_account_book_and_reporting = False
authority_inspection_and_correction_broker = False
internal_control_elements_met = False
authority_inspection_and_correction = False
internal_control_established = True
internal_control_executed = True
audit_system_executed = True
solicitation_handling_system_executed = True
internal_control_compliance_required = True
penalty = False
single_license_only = True
internal_control_operating_procedures = False
separate_account_book_and_reporting_broker = False
broker_company_service_procedures = True
internal_control_scale_requirement = True
internal_control_compliance = True
internal_control_required = True
solicitation_handling_system_established = True
audit_system_established = True
bank_broker_service_procedures = True
fixed_office_and_special_account_book = True